Instance name : DPDPTWUR-R_one_clustering_DPDPTW-R_mitrovic-minic_Rnd6_10h_100_001_slice_6
Authors : 
Date : 
Reference 
Solution
Route 1 : 46 65 6 73 1 113 132 29 13 48 63 53 55 2 35 120 8 115 68 49 75 44 116 96 51 69 111 9 130 122 80 21 11 88 61 118 128 102 76 60 78 127 
Route 2 : 4 45 71 112 30 12 79 20 37 87 47 104 114 24 91 50 36 38 103 97 105 117 40 66 133 16 83 107 18 85 41 108 
Route 3 : 26 57 43 124 93 62 110 129 39 106 
Route 4 : 27 94 22 89 58 125 
Route 5 : 3 70 54 10 28 77 95 121 42 109 19 17 84 25 52 92 56 123 119 14 86 81 15 82 
Route 6 : 67 134 34 101 59 126 
Route 7 : 33 7 32 100 99 74 
Route 8 : 
Route 9 : 
Route 10 : 
Route 11 : 
Route 12 : 
Route 13 : 
Route 14 : 
Route 15 : 
Route 16 : 
Route 17 : 
Route 18 : 
Route 19 : 
Route 20 : 
Route 21 : 
